
===== New CPLEX run =====
Instance: /home/yorig/tuner/mpils-tests/instances/miplib/easy/lotsize.mps
Config: /scratch/yorig/mpils-results-grid-seconds-5-no-mip-start/easy/16proc/seed-3/4_lotsize_seed-3_20260502_223218/expansion/config_param_CPXPARAM_MIP_Strategy_PresolveNode_3_iter_2.prm
========================

Selected objective sense:  MINIMIZE
Selected objective  name:  R1921
Selected RHS        name:  B
Selected bound      name:  BOUND
Version identifier: 22.1.2.0 | 2024-11-26 | 0edbb82fd
CPXPARAM_Threads                                 8
CPXPARAM_Parallel                                1
CPXPARAM_MIP_Cuts_Cliques                        2
CPXPARAM_MIP_Strategy_PresolveNode               3
CPXPARAM_MIP_Cuts_FlowCovers                     2
CPXPARAM_MIP_Cuts_Implied                        1
CPXPARAM_MIP_Limits_GomoryCand                   800
CPXPARAM_MIP_Cuts_Gomory                         -1
CPXPARAM_MIP_Cuts_PathCut                        1
CPXPARAM_MIP_Cuts_MIRCut                         2
CPXPARAM_MIP_Cuts_Disjunctive                    2
CPXPARAM_Emphasis_MIP                            1
CPXPARAM_MIP_Strategy_BBInterval                 4
CPXPARAM_TimeLimit                               5
Tried aggregator 1 time.
MIP Presolve eliminated 595 rows and 0 columns.
MIP Presolve added 1190 rows and 0 columns.
MIP Presolve modified 10 coefficients.
Reduced MIP has 2515 rows, 2985 columns, and 7755 nonzeros.
Reduced MIP has 1195 binaries, 0 generals, 0 SOSs, and 0 indicators.
Presolve time = 0.00 sec. (4.53 ticks)
Probing fixed 0 vars, tightened 5487 bounds.
Probing time = 0.01 sec. (18.38 ticks)
Tried aggregator 2 times.
Detecting symmetries...
MIP Presolve modified 1206 coefficients.
Aggregator did 10 substitutions.
Reduced MIP has 2505 rows, 2975 columns, and 7735 nonzeros.
Reduced MIP has 1195 binaries, 0 generals, 0 SOSs, and 0 indicators.
Presolve time = 0.00 sec. (6.66 ticks)
Probing fixed 0 vars, tightened 2401 bounds.
Probing time = 0.00 sec. (6.41 ticks)
Clique table members: 190.
MIP emphasis: integer feasibility.
MIP search method: dynamic search.
Parallel mode: deterministic, using up to 8 threads.
Root relaxation solution time = 0.01 sec. (9.71 ticks)

        Nodes                                         Cuts/
   Node  Left     Objective  IInf  Best Integer    Best Bound    ItCnt     Gap

      0     0   348385.3466   472                 348385.3466      882         
      0     0   583577.4049   435                   Cuts: 726     1819         
      0     0   818290.4051   692                   Cuts: 726     2653         
*     0+    0                       1.01740e+07   818290.4051            91.96%
*     0+    0                      7973370.0000   818290.4051            89.74%
      0     0   947113.9594   686  7973370.0000     Cuts: 726     3332   88.12%
Detecting symmetries...
      0     2   947113.9594   686  7973370.0000   949700.7247     3332   88.09%
Elapsed time = 0.46 sec. (617.35 ticks, tree = 0.02 MB, solutions = 2)
    108   103  1068116.3319   685  7973370.0000   949700.7247     5015   88.09%
    274   225  1061323.6101   673  7973370.0000   949700.7247    17740   88.09%
    511   468  1167158.1324   517  7973370.0000   949700.7247    21119   88.09%
    697   626  1115689.1308   563  7973370.0000   949700.7247    23570   88.09%
    931   835  1157504.9236   497  7973370.0000   949700.7247    27001   88.09%
   1132  1013  1148480.0450   435  7973370.0000   949700.7247    30181   88.09%
   1312  1209  1230957.1350   387  7973370.0000   949700.7247    33117   88.09%
   1479  1435  1339988.8629   336  7973370.0000   949700.7247    36345   88.09%
   1696  1554  1395483.3410   304  7973370.0000   949700.7247    38107   88.09%

Performing restart 1

Repeating presolve.
Tried aggregator 1 time.
MIP Presolve modified 1234 coefficients.
Reduced MIP has 2505 rows, 2975 columns, and 7735 nonzeros.
Reduced MIP has 1195 binaries, 0 generals, 0 SOSs, and 0 indicators.
Presolve time = 0.00 sec. (3.85 ticks)
Tried aggregator 1 time.
MIP Presolve modified 1009 coefficients.
Reduced MIP has 2505 rows, 2975 columns, and 7735 nonzeros.
Reduced MIP has 1195 binaries, 0 generals, 0 SOSs, and 0 indicators.
Presolve time = 0.00 sec. (5.12 ticks)
Represolve time = 0.02 sec. (19.04 ticks)
   1711     0  1139989.1294   731  7973370.0000     Cuts: 726    43828   85.70%
   1711     0  1222757.7330   718  7973370.0000     Cuts: 726    44637   84.66%
   1711     0  1269611.2433   689  7973370.0000     Cuts: 726    45304   84.08%
   1711     2  1269611.2433   689  7973370.0000  1269611.2433    45304   84.08%
Elapsed time = 4.53 sec. (4889.86 ticks, tree = 0.02 MB, solutions = 2)

Clique cuts applied:  0
Cover cuts applied:  22
Implied bound cuts applied:  11
Flow cuts applied:  456
Mixed integer rounding cuts applied:  741
Flow path cuts applied:  45
Multi commodity flow cuts applied:  14
Lift and project cuts applied:  16
Disjunctive cuts applied:  0
Cone linearizations applied:  0

Root node processing (before b&c):
  Real time             =    0.45 sec. (610.79 ticks)
Parallel b&c, 8 threads:
  Real time             =    4.57 sec. (5015.73 ticks)
  Sync time (average)   =    0.25 sec.
  Wait time (average)   =    0.01 sec.
                          ------------
Total (root+branch&cut) =    5.02 sec. (5626.52 ticks)
Gap: 84.08%
Upper bound: 7.97337e+06
Lower bound: 1.26962e+06
End of CPLEX run. Time: 5.02268 seconds

===== New CPLEX run =====
Instance: /home/yorig/tuner/mpils-tests/instances/miplib/easy/lotsize.mps
Config: /scratch/yorig/mpils-results-grid-seconds-5-no-mip-start/easy/16proc/seed-3/4_lotsize_seed-3_20260502_223218/expansion/config_param_CPXPARAM_MIP_Strategy_Order_0_iter_2.prm
========================

Selected objective sense:  MINIMIZE
Selected objective  name:  R1921
Selected RHS        name:  B
Selected bound      name:  BOUND
Version identifier: 22.1.2.0 | 2024-11-26 | 0edbb82fd
CPXPARAM_Threads                                 8
CPXPARAM_Parallel                                1
CPXPARAM_MIP_Cuts_Cliques                        2
CPXPARAM_MIP_Strategy_Order                      0
CPXPARAM_MIP_Cuts_FlowCovers                     2
CPXPARAM_MIP_Cuts_Implied                        1
CPXPARAM_MIP_Limits_GomoryCand                   800
CPXPARAM_MIP_Cuts_Gomory                         -1
CPXPARAM_MIP_Cuts_PathCut                        1
CPXPARAM_MIP_Cuts_MIRCut                         2
CPXPARAM_MIP_Cuts_Disjunctive                    2
CPXPARAM_Emphasis_MIP                            1
CPXPARAM_MIP_Strategy_BBInterval                 4
CPXPARAM_TimeLimit                               5
Tried aggregator 1 time.
MIP Presolve eliminated 595 rows and 0 columns.
MIP Presolve added 1190 rows and 0 columns.
MIP Presolve modified 10 coefficients.
Reduced MIP has 2515 rows, 2985 columns, and 7755 nonzeros.
Reduced MIP has 1195 binaries, 0 generals, 0 SOSs, and 0 indicators.
Presolve time = 0.00 sec. (4.53 ticks)
Probing fixed 0 vars, tightened 5487 bounds.
Probing time = 0.01 sec. (18.38 ticks)
Tried aggregator 2 times.
Detecting symmetries...
MIP Presolve modified 1206 coefficients.
Aggregator did 10 substitutions.
Reduced MIP has 2505 rows, 2975 columns, and 7735 nonzeros.
Reduced MIP has 1195 binaries, 0 generals, 0 SOSs, and 0 indicators.
Presolve time = 0.00 sec. (6.66 ticks)
Probing fixed 0 vars, tightened 2401 bounds.
Probing time = 0.00 sec. (6.41 ticks)
Clique table members: 190.
MIP emphasis: integer feasibility.
MIP search method: dynamic search.
Parallel mode: deterministic, using up to 8 threads.
Root relaxation solution time = 0.01 sec. (9.71 ticks)

        Nodes                                         Cuts/
   Node  Left     Objective  IInf  Best Integer    Best Bound    ItCnt     Gap

      0     0   348385.3466   472                 348385.3466      882         
      0     0   583577.4049   435                   Cuts: 726     1819         
      0     0   818290.4051   692                   Cuts: 726     2653         
*     0+    0                       1.01740e+07   818290.4051            91.96%
*     0+    0                      7973370.0000   818290.4051            89.74%
      0     0   947113.9594   686  7973370.0000     Cuts: 726     3332   88.12%
Detecting symmetries...
      0     2   947113.9594   686  7973370.0000   949700.7247     3332   88.09%
Elapsed time = 0.45 sec. (613.28 ticks, tree = 0.02 MB, solutions = 2)
    429   393   999212.8472   595  7973370.0000   949700.7247     7651   88.09%
   1024   831  1146818.7408   469  7973370.0000   949700.7247    13905   88.09%

Performing restart 1

Repeating presolve.
Tried aggregator 1 time.
MIP Presolve modified 1156 coefficients.
Reduced MIP has 2505 rows, 2975 columns, and 7735 nonzeros.
Reduced MIP has 1195 binaries, 0 generals, 0 SOSs, and 0 indicators.
Presolve time = 0.00 sec. (3.78 ticks)
Tried aggregator 1 time.
MIP Presolve modified 1023 coefficients.
Reduced MIP has 2505 rows, 2975 columns, and 7735 nonzeros.
Reduced MIP has 1195 binaries, 0 generals, 0 SOSs, and 0 indicators.
Presolve time = 0.00 sec. (5.12 ticks)
Represolve time = 0.02 sec. (18.91 ticks)
   1738     0  1070214.8248   702  7973370.0000     Cuts: 726    27978   86.58%
   1738     0  1165198.3647   693  7973370.0000     Cuts: 726    28821   85.39%
   1738     0  1234987.6657   687  7973370.0000     Cuts: 726    29661   84.51%
   1738     2  1234987.6657   687  7973370.0000  1234987.6657    29661   84.51%
   1756    20  1328013.4883   568  7973370.0000  1235146.5611    30362   84.51%
   1778    42  1340941.5650   524  7973370.0000  1235146.5611    30893   84.51%
   1820    82  1380459.1774   465  7973370.0000  1235146.5611    31930   84.51%
   1826     8  1329154.1230   681  7973370.0000  1235743.5270    30010   84.50%
   1838    99  1510639.6376   526  7973370.0000  1235743.5270    36818   84.50%
   1882   142  1573207.4245   419  7973370.0000  1267254.4862    48935   84.11%
*  2129+  189                      1821555.0000  1311144.0615            28.02%
   2466   488  1523679.5920   515  1821555.0000  1311144.0615    84828   28.02%
Elapsed time = 4.37 sec. (5447.46 ticks, tree = 0.62 MB, solutions = 3)
*  2652+  682                      1757937.0000  1311144.0615            25.42%
*  2652+  682                      1717308.0000  1311144.0615            23.65%
*  2653+  682                      1715772.0000  1311144.0615            23.58%
*  2653+  661                      1715383.0000  1311144.0615            23.57%
*  2659+  661                      1707735.0000  1311144.0615            23.22%
*  2664+  661                      1703876.0000  1311144.0615            23.05%
*  2682+  757                      1694892.0000  1311144.0615            22.64%
*  2820+  812                      1688233.0000  1311144.0615            22.34%
*  2822+  812                      1662887.0000  1311144.0615            21.15%
*  2833+  773                      1631395.0000  1311144.0615            19.63%
*  2835+  773                      1630163.0000  1311144.0615            19.57%

Clique cuts applied:  1
Cover cuts applied:  23
Implied bound cuts applied:  11
Flow cuts applied:  1287
Mixed integer rounding cuts applied:  1540
Flow path cuts applied:  78
Multi commodity flow cuts applied:  24
Lift and project cuts applied:  20
Disjunctive cuts applied:  0
Cone linearizations applied:  0

Root node processing (before b&c):
  Real time             =    0.45 sec. (611.05 ticks)
Parallel b&c, 8 threads:
  Real time             =    4.57 sec. (5634.97 ticks)
  Sync time (average)   =    0.31 sec.
  Wait time (average)   =    0.00 sec.
                          ------------
Total (root+branch&cut) =    5.01 sec. (6246.02 ticks)
Gap: 19.57%
Upper bound: 1.63016e+06
Lower bound: 1.31114e+06
End of CPLEX run. Time: 5.01348 seconds

===== New CPLEX run =====
Instance: /home/yorig/tuner/mpils-tests/instances/miplib/easy/lotsize.mps
Config: /scratch/yorig/mpils-results-grid-seconds-5-no-mip-start/easy/16proc/seed-3/4_lotsize_seed-3_20260502_223218/expansion/config_param_CPXPARAM_Preprocessing_Presolve_0_iter_2.prm
========================

Selected objective sense:  MINIMIZE
Selected objective  name:  R1921
Selected RHS        name:  B
Selected bound      name:  BOUND
Version identifier: 22.1.2.0 | 2024-11-26 | 0edbb82fd
CPXPARAM_Preprocessing_Presolve                  0
CPXPARAM_Threads                                 8
CPXPARAM_Parallel                                1
CPXPARAM_MIP_Cuts_Cliques                        2
CPXPARAM_MIP_Cuts_FlowCovers                     2
CPXPARAM_MIP_Cuts_Implied                        1
CPXPARAM_MIP_Limits_GomoryCand                   800
CPXPARAM_MIP_Cuts_Gomory                         -1
CPXPARAM_MIP_Cuts_PathCut                        1
CPXPARAM_MIP_Cuts_MIRCut                         2
CPXPARAM_MIP_Cuts_Disjunctive                    2
CPXPARAM_Emphasis_MIP                            1
CPXPARAM_MIP_Strategy_BBInterval                 4
CPXPARAM_TimeLimit                               5
Clique table members: 125.
MIP emphasis: integer feasibility.
MIP search method: dynamic search.
Parallel mode: deterministic, using up to 8 threads.
Root relaxation solution time = 0.01 sec. (9.48 ticks)

        Nodes                                         Cuts/
   Node  Left     Objective  IInf  Best Integer    Best Bound    ItCnt     Gap

      0     0   348385.3466   471                 348385.3466     1479         
      0     0   564911.6147   560                   Cuts: 580     2579         
      0     0   730272.2183   599                   Cuts: 580     3254         
      0     0   873604.0547   610                   Cuts: 580     3941         
*     0+    0                       1.09202e+07   873604.0547            92.00%
*     0+    0                      8456904.0000   873604.0547            89.67%
Detecting symmetries...
      0     2   873604.0547   610  8456904.0000   873604.0547     3941   89.67%
Elapsed time = 0.23 sec. (352.84 ticks, tree = 0.02 MB, solutions = 2)
    299   238   997090.1672   543  8456904.0000   874906.5876    11872   89.65%
   1083   887  1047837.0490   461  8456904.0000   874906.5876    17639   89.65%
   2115  1912  1320568.0225   344  8456904.0000   874906.5876    27891   89.65%
   3094  2824  1476495.6172   231  8456904.0000   874906.5876    37524   89.65%
*  4300+ 3957                      1923980.0000   876486.5122            54.44%
   4385  4123  1564294.1131   149  1923980.0000   876486.5122    49873   54.44%
*  5318  4936      integral     0  1906704.0000   876486.5122    56851   54.03%
*  5460+ 4567                      1762689.0000   876486.5122            50.28%
*  5525+ 4567                      1752322.0000   876486.5122            49.98%
   5573  5140  1803168.5554     9  1752322.0000   876486.5122    58304   49.98%
*  5591+ 4567                      1734287.0000   876486.5122            49.46%
*  5728+ 4567                      1731899.0000   876486.5122            49.39%
*  5809+ 4567                      1716033.0000   876486.5122            48.92%
*  5893+ 5271                      1712318.0000   876486.5122            48.81%
*  5901+ 5271                      1694036.0000   876486.5122            48.26%
*  5908+ 5271                      1691468.0000   876486.5122            48.18%
*  6002+ 5309                      1615143.0000   876486.5122            45.73%
*  6086+ 5309                      1615026.0000   876486.5122            45.73%
*  6126+ 5309                      1612804.0000   876486.5122            45.65%
*  6189+ 5309                      1611701.0000   876486.5122            45.62%
   6386  5186  1386821.5121   302  1611701.0000   876486.5122    66858   45.62%
   7484  6089  1368792.8576   383  1611701.0000   876486.5122    79234   45.62%
   8821  6978  1104926.0347   484  1611701.0000   876486.5122    91453   45.62%
  15120 12828  1336135.6213   403  1611701.0000   876486.5122   146898   45.62%
Elapsed time = 2.59 sec. (3453.75 ticks, tree = 18.45 MB, solutions = 21)
  20549 18153  1521300.0213   304  1611701.0000   876486.5122   198483   45.62%
  26444 24407  1026686.6661   548  1611701.0000   876486.5122   254233   45.62%
* 27434+25080                      1599880.0000   876486.5122            45.22%
* 27549+24917                      1598623.0000   876486.5122            45.17%
* 27551+25224                      1598306.0000   876486.5122            45.16%
* 27555+25224                      1596772.0000   876486.5122            45.11%
* 27567+24917                      1592208.0000   876486.5122            44.95%
* 27593+24917                      1591248.0000   876486.5122            44.92%
* 28068+25333                      1573898.0000   876486.5122            44.31%
* 28342+25279                      1573550.0000   876486.5122            44.30%
* 28349+24880                      1573545.0000   876486.5122            44.30%
* 28369+24880                      1571944.0000   876486.5122            44.24%
* 28384+24880                      1570741.0000   876486.5122            44.20%
* 28387+25279                      1570456.0000   876486.5122            44.19%
* 28400+24880                      1563597.0000   876486.5122            43.94%
* 28442+24880                      1561278.0000   876486.5122            43.86%
* 28454+24880                      1560671.0000   876486.5122            43.84%
* 28459+24880                      1560273.0000   876486.5122            43.82%

Clique cuts applied:  0
Cover cuts applied:  5
Implied bound cuts applied:  1
Flow cuts applied:  1046
Mixed integer rounding cuts applied:  313
Flow path cuts applied:  123
Multi commodity flow cuts applied:  31
Lift and project cuts applied:  1
Disjunctive cuts applied:  0
Cone linearizations applied:  0

Root node processing (before b&c):
  Real time             =    0.23 sec. (351.97 ticks)
Parallel b&c, 8 threads:
  Real time             =    4.78 sec. (5902.15 ticks)
  Sync time (average)   =    0.92 sec.
  Wait time (average)   =    0.00 sec.
                          ------------
Total (root+branch&cut) =    5.00 sec. (6254.12 ticks)
Gap: 43.82%
Upper bound: 1.56027e+06
Lower bound: 876487
End of CPLEX run. Time: 5.00593 seconds
